WARNING: for repeatability, setting FPU to use double precision
============================[ Problem Statistics ]=============================
|                                                                             |
|  Number of variables:            50                                         |
|  Number of clauses:             218                                         |
|  Parse time:                   0.00 s                                       |
|                                                                             |
============================[ Search Statistics ]==============================
| Conflicts |          ORIGINAL         |          LEARNT          | Progress |
|           |    Vars  Clauses Literals |    Limit  Clauses Lit/Cl |          |
===============================================================================
===============================================================================
restarts              : 1
conflicts             : 68             (44944 /sec)
decisions             : 85             (0.00 % random) (56180 /sec)
propagations          : 951            (628553 /sec)
conflict literals     : 262            (22.49 % deleted)
Memory used           : 20.00 MB
CPU time              : 0.001513 s

SATISFIABLE
